
Gurobi 10.0.3 (linux64, gurobi_cl) logging started Thu Nov  9 11:40:47 2023

Set parameter Username
Set parameter TimeLimit to value 3600
Set parameter LogFile to value "RCPSP_90.log"
Set parameter Threads to value 32
Academic license - for non-commercial use only - expires 2024-10-30
Using license file /home/jrivera6/gurobi-licenses/v1003/compute-0-34/gurobi.lic

Gurobi Optimizer version 10.0.3 build v10.0.3rc0 (linux64)
Copyright (c) 2023, Gurobi Optimization, LLC

Read MPS format model from file RCPSP_90.mps
Reading time = 0.02 seconds
RCPSP_90: 5329 rows, 2080 columns, 17974 nonzeros

CPU model: Intel(R) Xeon(R) Gold 6130 CPU @ 2.10GHz, instruction set [SSE2|AVX|AVX2|AVX512]
Thread count: 32 physical cores, 32 logical processors, using up to 32 threads

Optimize a model with 5329 rows, 2080 columns and 17974 nonzeros
Model fingerprint: 0xdbb20955
Variable types: 32 continuous, 2048 integer (2048 binary)
Coefficient statistics:
  Matrix range     [1e+00, 2e+02]
  Objective range  [1e+00, 1e+00]
  Bounds range     [1e+00, 1e+00]
  RHS range        [1e+00, 2e+02]
Presolve removed 3202 rows and 1228 columns
Presolve time: 0.16s
Presolved: 2127 rows, 852 columns, 7049 nonzeros
Variable types: 31 continuous, 821 integer (821 binary)

Root relaxation: objective 6.300000e+01, 312 iterations, 0.00 seconds (0.00 work units)

    Nodes    |    Current Node    |     Objective Bounds      |     Work
 Expl Unexpl |  Obj  Depth IntInf | Incumbent    BestBd   Gap | It/Node Time

     0     0   63.00000    0   34          -   63.00000      -     -    0s
     0     0   63.00000    0   67          -   63.00000      -     -    0s
     0     0   63.00000    0  108          -   63.00000      -     -    0s
     0     0   63.00000    0   60          -   63.00000      -     -    1s
     0     0   63.00000    0   60          -   63.00000      -     -    1s
     0     0   63.00309    0   84          -   63.00309      -     -    1s
     0     0   63.00357    0   97          -   63.00357      -     -    1s
H    0     0                     113.0000000   63.00357  44.2%     -    1s
     0     0   63.05349    0  134  113.00000   63.05349  44.2%     -    1s
H    0     0                      98.0000000   63.05414  35.7%     -    1s
     0     0   63.05414    0  146   98.00000   63.05414  35.7%     -    1s
     0     0   63.38205    0  158   98.00000   63.38205  35.3%     -    2s
     0     0   63.57167    0  155   98.00000   63.57167  35.1%     -    2s
     0     0   63.98184    0  154   98.00000   63.98184  34.7%     -    2s
H    0     0                      96.0000000   63.98184  33.4%     -    2s
     0     0   63.99773    0  148   96.00000   63.99773  33.3%     -    2s
     0     0   64.03014    0  136   96.00000   64.03014  33.3%     -    2s
     0     0   64.03014    0  120   96.00000   64.03014  33.3%     -    2s
     0     0   64.09418    0  126   96.00000   64.09418  33.2%     -    2s
     0     0   64.12391    0  134   96.00000   64.12391  33.2%     -    2s
     0     0   64.12391    0  131   96.00000   64.12391  33.2%     -    2s
     0     0   64.23674    0  134   96.00000   64.23674  33.1%     -    2s
     0     0   64.25749    0  119   96.00000   64.25749  33.1%     -    2s
     0     0   64.25749    0  123   96.00000   64.25749  33.1%     -    2s
     0     0   64.40134    0  129   96.00000   64.40134  32.9%     -    2s
     0     0   64.40134    0  124   96.00000   64.40134  32.9%     -    3s
     0     0   64.41574    0  123   96.00000   64.41574  32.9%     -    3s
     0     0   64.41574    0  117   96.00000   64.41574  32.9%     -    3s
     0     0   64.41574    0  120   96.00000   64.41574  32.9%     -    3s
     0     0   64.41574    0  117   96.00000   64.41574  32.9%     -    3s
     0     0   64.56127    0   57   96.00000   64.56127  32.7%     -    3s
     0     0   64.57002    0   92   96.00000   64.57002  32.7%     -    3s
     0     0   64.57002    0  122   96.00000   64.57002  32.7%     -    3s
     0     0   64.70277    0  114   96.00000   64.70277  32.6%     -    3s
     0     0   64.70277    0   86   96.00000   64.70277  32.6%     -    3s
     0     0   64.70430    0   90   96.00000   64.70430  32.6%     -    4s
     0     0   64.70430    0  107   96.00000   64.70430  32.6%     -    4s
     0     0   64.73508    0  108   96.00000   64.73508  32.6%     -    4s
     0     0   64.73839    0  113   96.00000   64.73839  32.6%     -    4s
     0     0   64.73956    0  110   96.00000   64.73956  32.6%     -    4s
     0     0   64.73956    0  106   96.00000   64.73956  32.6%     -    4s
     0     0   64.74448    0  124   96.00000   64.74448  32.6%     -    4s
     0     0   64.74931    0  104   96.00000   64.74931  32.6%     -    4s
     0     0   64.75622    0   96   96.00000   64.75622  32.5%     -    4s
     0     0   64.75622    0   94   96.00000   64.75622  32.5%     -    4s
     0     0   64.76376    0   89   96.00000   64.76376  32.5%     -    4s
     0     0   64.76376    0   90   96.00000   64.76376  32.5%     -    4s
     0     0   64.76376    0  100   96.00000   64.76376  32.5%     -    4s
     0     0   64.76376    0   96   96.00000   64.76376  32.5%     -    5s
     0     0   64.76475    0   55   96.00000   64.76475  32.5%     -    5s
     0     0   64.76475    0   69   96.00000   64.76475  32.5%     -    5s
     0     0   64.76475    0   74   96.00000   64.76475  32.5%     -    5s
     0     0   64.76475    0   46   96.00000   64.76475  32.5%     -    5s
H    0     0                      95.0000000   64.76475  31.8%     -    6s
     0     2   64.76475    0   46   95.00000   64.76475  31.8%     -    7s
H   35    43                      93.0000000   71.00000  23.7%  77.7    8s
   179   212   72.44144   10   52   93.00000   71.00000  23.7%  47.4   10s
   309   317   73.00000   11   93   93.00000   71.00000  23.7%  36.7   20s
H  310   317                      91.0000000   71.00000  22.0%  36.6   20s
H 1420  1150                      90.0000000   71.00000  21.1%  18.6   22s
  3124  1962   86.00000   11   46   90.00000   71.00000  21.1%  14.9   37s
  3126  1963   89.00000   46   27   90.00000   71.00000  21.1%  14.9   40s
H 3130  1870                      90.0000000   71.00000  21.1%  15.5   49s
  3132  1873   71.00000   14   32   90.00000   71.00000  21.1%  15.6   50s
  4397  2202 infeasible   38        90.00000   71.00000  21.1%  14.4   55s
  6314  2432   80.00000   28   77   90.00000   71.00000  21.1%  12.3   60s
* 6467  2389              48      89.0000000   71.00000  20.2%  12.4   60s
  7527  2291   85.00000   24   45   89.00000   71.00000  20.2%  12.2   70s
H 7563  2190                      89.0000000   71.00000  20.2%  12.2   70s
 10487  2538 infeasible   33        89.00000   75.00000  15.7%  11.9   75s
*13441  2766              61      88.0000000   76.00000  13.6%  11.7   78s
 14561  2546 infeasible   35        88.00000   78.00000  11.4%  11.6   80s
 18931  2747 infeasible   32        88.00000   80.00000  9.09%  11.1   85s
 22991  2292 infeasible   55        88.00000   82.00000  6.82%  10.9   90s
 27746  1330 infeasible   40        88.00000   85.00000  3.41%  10.5   95s
*28545  1086              49      88.0000000   85.00000  3.41%  10.5   96s
 31534     1 infeasible   33        88.00000   85.00000  3.41%  10.1  100s

Explored 31568 nodes (329607 simplex iterations) in 100.73 seconds (4.04 work units)
Thread count was 32 (of 32 available processors)

Solution count 10: 88 88 89 ... 98

Optimal solution found (tolerance 1.00e-04)
Best objective 8.800000000000e+01, best bound 8.800000000000e+01, gap 0.0000%

Wrote result file 'RCPSP_90.sol'

